16 965
525 7 476 7 354 7 155 9 5 11 838 15 650 20 567 28
525 7 504 7 362 7 209 9 25 11 818 15 619 21
525 7 504 7 362 7 209 9 25 11 818 15 619 21
528 7 485 7 371 7 136 9 958 13
525 7 482 7 362 7 201 9 13 11 819 18
525 7 445 7 264 7 63 9 889 11 721 18
525 7 445 7 264 7 63 9 889 11 721 18
525 7 445 7 264 7 63 9 889 11 721 18
525 7 445 7 264 7 63 9 889 11 721 18
525 7 502 7 412 7 255 9 80 11 874 18
525 7 502 7 412 7 255 9 80 11 874 18
535 8 494 8 291 10
535 8 494 8 291 10
528 7 485 7 369 7 124 9 953 13
525 7 477 7 391 7 244 9 79 11 961 15 810 18
529 7 485 7 375 11
